c Sudoku solution
p cnf 729 0
114 0
162 0
195 0
219 0
226 0
248 0
347 0
454 0
473 0
491 0
524 0
535 0
563 0
572 0
669 0
688 0
716 0
731 0
783 0
828 0
871 0
899 0
589 0
915 0
325 0
929 0
439 0
636 0
967 0
941 0
546 0
486 0
675 0
694 0
597 0
657 0
642 0
551 0
445 0
468 0
518 0
885 0
777 0
722 0
798 0
958 0
852 0
843 0
866 0
817 0
834 0
933 0
412 0
427 0
149 0
379 0
744 0
765 0
759 0
255 0
293 0
274 0
261 0
364 0
976 0
984 0
992 0
178 0
396 0
156 0
353 0
123 0
311 0
181 0
382 0
287 0
137 0
232 0
338 0
613 0
621 0
